c File: data_files/evolved_graphs/g0344.col
c
c Auto generated graph
c
p edge 100 1767
e 1 4
e 1 5
e 1 10
e 1 11
e 1 25
e 1 27
e 1 28
e 1 29
e 1 31
e 1 33
e 1 34
e 1 37
e 1 39
e 1 41
e 1 45
e 1 48
e 1 49
e 1 51
e 1 52
e 1 54
e 1 56
e 1 58
e 1 59
e 1 61
e 1 71
e 1 72
e 1 73
e 1 74
e 1 75
e 1 80
e 1 81
e 1 82
e 1 83
e 1 84
e 1 87
e 1 88
e 1 89
e 1 90
e 1 92
e 1 93
e 1 94
e 1 95
e 1 96
e 1 97
e 1 98
e 1 99
e 1 100
e 2 4
e 2 5
e 2 11
e 2 25
e 2 26
e 2 27
e 2 28
e 2 29
e 2 30
e 2 31
e 2 34
e 2 35
e 2 38
e 2 39
e 2 40
e 2 42
e 2 43
e 2 44
e 2 47
e 2 48
e 2 51
e 2 62
e 2 68
e 2 72
e 2 73
e 2 74
e 2 75
e 2 80
e 2 81
e 2 82
e 2 83
e 2 84
e 2 85
e 2 86
e 2 87
e 2 88
e 2 89
e 2 90
e 2 91
e 2 92
e 2 93
e 2 94
e 2 95
e 2 96
e 2 97
e 2 98
e 2 99
e 2 100
e 3 4
e 3 25
e 3 26
e 3 27
e 3 28
e 3 29
e 3 31
e 3 35
e 3 36
e 3 38
e 3 39
e 3 40
e 3 43
e 3 45
e 3 47
e 3 52
e 3 54
e 3 56
e 3 58
e 3 60
e 3 70
e 3 72
e 3 73
e 3 74
e 3 75
e 3 76
e 3 77
e 3 79
e 3 80
e 3 83
e 3 84
e 3 85
e 3 86
e 3 87
e 3 89
e 3 90
e 3 91
e 3 92
e 3 93
e 3 94
e 3 95
e 3 96
e 3 97
e 3 98
e 3 99
e 3 100
e 4 25
e 4 26
e 4 27
e 4 28
e 4 30
e 4 31
e 4 32
e 4 36
e 4 37
e 4 38
e 4 39
e 4 42
e 4 43
e 4 47
e 4 49
e 4 50
e 4 53
e 4 54
e 4 55
e 4 57
e 4 58
e 4 59
e 4 61
e 4 64
e 4 69
e 4 89
e 4 90
e 4 91
e 4 92
e 4 93
e 4 94
e 4 95
e 4 96
e 4 97
e 4 98
e 4 99
e 4 100
e 5 11
e 5 25
e 5 26
e 5 27
e 5 28
e 5 29
e 5 32
e 5 33
e 5 36
e 5 40
e 5 43
e 5 45
e 5 48
e 5 52
e 5 53
e 5 55
e 5 60
e 5 61
e 5 62
e 5 65
e 5 66
e 5 68
e 5 89
e 5 90
e 5 91
e 5 92
e 5 93
e 5 94
e 5 95
e 5 96
e 5 97
e 5 98
e 5 99
e 5 100
e 6 24
e 6 25
e 6 26
e 6 27
e 6 28
e 6 29
e 6 30
e 6 32
e 6 35
e 6 40
e 6 41
e 6 42
e 6 46
e 6 53
e 6 67
e 6 71
e 6 89
e 6 90
e 6 91
e 6 92
e 6 93
e 6 94
e 6 95
e 6 96
e 6 97
e 6 98
e 6 99
e 6 100
e 7 25
e 7 26
e 7 27
e 7 28
e 7 29
e 7 32
e 7 36
e 7 37
e 7 39
e 7 41
e 7 45
e 7 48
e 7 50
e 7 52
e 7 54
e 7 55
e 7 60
e 7 63
e 7 70
e 7 71
e 7 89
e 7 90
e 7 91
e 7 92
e 7 93
e 7 94
e 7 95
e 7 96
e 7 97
e 7 98
e 7 99
e 7 100
e 8 24
e 8 25
e 8 26
e 8 27
e 8 28
e 8 29
e 8 31
e 8 36
e 8 38
e 8 39
e 8 40
e 8 43
e 8 44
e 8 46
e 8 49
e 8 54
e 8 56
e 8 59
e 8 65
e 8 66
e 8 68
e 8 89
e 8 90
e 8 91
e 8 92
e 8 93
e 8 94
e 8 95
e 8 96
e 8 97
e 8 98
e 8 99
e 8 100
e 9 17
e 9 24
e 9 26
e 9 27
e 9 28
e 9 32
e 9 34
e 9 36
e 9 37
e 9 38
e 9 39
e 9 41
e 9 42
e 9 44
e 9 47
e 9 48
e 9 54
e 9 55
e 9 56
e 9 59
e 9 60
e 9 66
e 9 67
e 9 71
e 9 89
e 9 90
e 9 91
e 9 92
e 9 93
e 9 94
e 9 95
e 9 96
e 9 97
e 9 98
e 9 99
e 9 100
e 10 25
e 10 26
e 10 27
e 10 28
e 10 29
e 10 31
e 10 34
e 10 35
e 10 36
e 10 38
e 10 43
e 10 44
e 10 46
e 10 50
e 10 51
e 10 55
e 10 60
e 10 61
e 10 64
e 10 67
e 10 89
e 10 90
e 10 91
e 10 92
e 10 93
e 10 94
e 10 95
e 10 96
e 10 97
e 10 98
e 10 99
e 10 100
e 11 18
e 11 25
e 11 26
e 11 27
e 11 28
e 11 29
e 11 32
e 11 34
e 11 35
e 11 36
e 11 37
e 11 38
e 11 40
e 11 41
e 11 42
e 11 44
e 11 46
e 11 47
e 11 48
e 11 51
e 11 52
e 11 55
e 11 56
e 11 59
e 11 63
e 11 65
e 11 66
e 11 69
e 11 70
e 11 71
e 11 89
e 11 90
e 11 92
e 11 93
e 11 94
e 11 95
e 11 96
e 11 97
e 11 98
e 11 99
e 11 100
e 12 25
e 12 26
e 12 27
e 12 28
e 12 31
e 12 32
e 12 33
e 12 35
e 12 38
e 12 40
e 12 41
e 12 42
e 12 43
e 12 44
e 12 45
e 12 46
e 12 47
e 12 50
e 12 52
e 12 58
e 12 59
e 12 60
e 12 61
e 12 62
e 12 69
e 13 25
e 13 27
e 13 28
e 13 30
e 13 36
e 13 38
e 13 40
e 13 42
e 13 46
e 13 50
e 13 51
e 13 52
e 13 53
e 13 61
e 13 64
e 13 66
e 13 69
e 13 70
e 14 25
e 14 27
e 14 28
e 14 30
e 14 31
e 14 32
e 14 39
e 14 43
e 14 44
e 14 45
e 14 48
e 14 50
e 14 52
e 14 55
e 14 58
e 14 59
e 14 70
e 14 71
e 15 25
e 15 27
e 15 28
e 15 29
e 15 32
e 15 33
e 15 35
e 15 43
e 15 51
e 15 54
e 15 57
e 15 64
e 15 65
e 16 25
e 16 27
e 16 28
e 16 33
e 16 36
e 16 37
e 16 41
e 16 43
e 16 45
e 16 46
e 16 48
e 16 49
e 16 57
e 16 58
e 16 62
e 16 68
e 16 70
e 17 25
e 17 27
e 17 28
e 17 29
e 17 33
e 17 34
e 17 37
e 17 39
e 17 40
e 17 42
e 17 43
e 17 46
e 17 49
e 17 50
e 17 51
e 17 53
e 17 55
e 17 65
e 17 67
e 17 68
e 17 70
e 18 25
e 18 26
e 18 27
e 18 28
e 18 32
e 18 33
e 18 34
e 18 35
e 18 38
e 18 47
e 18 50
e 18 68
e 18 69
e 19 25
e 19 26
e 19 27
e 19 28
e 19 29
e 19 31
e 19 34
e 19 35
e 19 38
e 19 39
e 19 45
e 19 49
e 19 51
e 19 53
e 19 54
e 19 57
e 19 60
e 19 61
e 19 65
e 19 66
e 19 69
e 19 72
e 19 73
e 19 75
e 19 76
e 19 78
e 19 79
e 19 84
e 19 86
e 19 91
e 19 94
e 19 97
e 19 98
e 19 99
e 19 100
e 20 25
e 20 26
e 20 27
e 20 28
e 20 30
e 20 36
e 20 38
e 20 40
e 20 43
e 20 44
e 20 45
e 20 47
e 20 48
e 20 51
e 20 53
e 20 55
e 20 61
e 20 64
e 20 65
e 20 66
e 20 69
e 20 72
e 20 77
e 20 78
e 20 80
e 20 82
e 20 83
e 20 84
e 20 85
e 20 87
e 20 89
e 20 93
e 20 94
e 20 95
e 20 96
e 20 98
e 20 99
e 21 25
e 21 26
e 21 27
e 21 28
e 21 29
e 21 32
e 21 37
e 21 39
e 21 40
e 21 41
e 21 45
e 21 50
e 21 51
e 21 52
e 21 54
e 21 59
e 21 62
e 21 63
e 21 69
e 21 70
e 21 71
e 21 72
e 21 75
e 21 77
e 21 80
e 21 84
e 21 86
e 21 87
e 21 88
e 21 90
e 21 91
e 21 92
e 21 93
e 21 94
e 21 99
e 22 25
e 22 26
e 22 27
e 22 28
e 22 29
e 22 30
e 22 32
e 22 33
e 22 34
e 22 36
e 22 41
e 22 42
e 22 43
e 22 47
e 22 50
e 22 51
e 22 53
e 22 54
e 22 55
e 22 56
e 22 58
e 22 62
e 22 63
e 22 64
e 22 67
e 22 68
e 22 71
e 22 72
e 22 75
e 22 76
e 22 77
e 22 81
e 22 82
e 22 84
e 22 85
e 22 86
e 22 88
e 22 90
e 22 92
e 22 94
e 22 97
e 22 100
e 23 25
e 23 26
e 23 27
e 23 28
e 23 30
e 23 31
e 23 39
e 23 40
e 23 41
e 23 42
e 23 43
e 23 47
e 23 49
e 23 50
e 23 51
e 23 57
e 23 60
e 23 61
e 23 70
e 23 73
e 23 75
e 23 76
e 23 78
e 23 79
e 23 81
e 23 83
e 23 85
e 23 86
e 23 87
e 23 88
e 23 92
e 23 93
e 23 94
e 23 95
e 23 97
e 23 98
e 23 99
e 23 100
e 24 25
e 24 26
e 24 27
e 24 28
e 24 36
e 24 40
e 24 42
e 24 43
e 24 50
e 24 51
e 24 52
e 24 56
e 24 59
e 24 62
e 24 68
e 24 70
e 24 72
e 24 73
e 24 75
e 24 76
e 24 78
e 24 79
e 24 80
e 24 81
e 24 85
e 24 86
e 24 87
e 24 88
e 24 90
e 24 91
e 24 93
e 24 96
e 24 99
e 24 100
e 25 34
e 25 35
e 25 39
e 25 40
e 25 43
e 25 46
e 25 53
e 25 55
e 25 58
e 25 59
e 25 60
e 25 61
e 25 67
e 25 69
e 25 77
e 25 79
e 25 80
e 25 81
e 25 82
e 25 86
e 25 87
e 25 92
e 25 95
e 26 29
e 26 35
e 26 39
e 26 40
e 26 46
e 26 51
e 26 54
e 26 55
e 26 56
e 26 58
e 26 60
e 26 61
e 26 62
e 26 68
e 26 69
e 26 71
e 26 73
e 26 76
e 26 78
e 26 79
e 26 80
e 26 84
e 26 87
e 26 91
e 26 92
e 26 93
e 26 95
e 26 96
e 26 97
e 26 98
e 26 99
e 27 31
e 27 34
e 27 35
e 27 36
e 27 38
e 27 40
e 27 41
e 27 44
e 27 47
e 27 48
e 27 51
e 27 53
e 27 54
e 27 56
e 27 57
e 27 61
e 27 62
e 27 69
e 27 70
e 27 72
e 27 74
e 27 75
e 27 76
e 27 77
e 27 78
e 27 79
e 27 81
e 27 82
e 27 85
e 27 89
e 27 90
e 27 93
e 27 94
e 27 96
e 27 97
e 27 98
e 27 99
e 27 100
e 28 30
e 28 31
e 28 33
e 28 34
e 28 35
e 28 38
e 28 40
e 28 41
e 28 42
e 28 44
e 28 45
e 28 46
e 28 47
e 28 48
e 28 50
e 28 53
e 28 58
e 28 59
e 28 61
e 28 62
e 28 66
e 28 68
e 28 71
e 28 72
e 28 76
e 28 78
e 28 79
e 28 80
e 28 81
e 28 82
e 28 83
e 28 84
e 28 85
e 28 86
e 28 92
e 28 94
e 28 95
e 28 97
e 28 98
e 29 61
e 29 65
e 29 69
e 29 70
e 29 74
e 29 75
e 29 79
e 29 80
e 29 83
e 29 84
e 29 85
e 29 87
e 29 89
e 29 90
e 29 93
e 29 94
e 29 96
e 30 36
e 30 54
e 30 59
e 30 62
e 30 65
e 30 69
e 30 71
e 30 72
e 30 74
e 30 76
e 30 77
e 30 79
e 30 81
e 30 82
e 30 86
e 30 88
e 30 89
e 30 93
e 30 94
e 30 95
e 30 98
e 30 100
e 31 55
e 31 56
e 31 57
e 31 59
e 31 60
e 31 63
e 31 65
e 31 72
e 31 75
e 31 76
e 31 82
e 31 83
e 31 87
e 31 92
e 31 93
e 31 95
e 31 96
e 31 99
e 32 57
e 32 58
e 32 59
e 32 60
e 32 61
e 32 64
e 32 65
e 32 68
e 32 69
e 32 70
e 32 71
e 32 72
e 32 73
e 32 75
e 32 81
e 32 82
e 32 83
e 32 84
e 32 86
e 32 88
e 32 92
e 32 93
e 32 94
e 32 97
e 32 98
e 33 53
e 33 56
e 33 58
e 33 60
e 33 63
e 33 64
e 33 65
e 33 67
e 33 71
e 33 72
e 33 73
e 33 74
e 33 75
e 33 76
e 33 78
e 33 79
e 33 80
e 33 81
e 33 83
e 33 84
e 33 85
e 33 86
e 33 87
e 33 88
e 33 90
e 33 92
e 33 94
e 33 98
e 33 99
e 34 55
e 34 58
e 34 63
e 34 65
e 34 67
e 34 70
e 34 71
e 34 76
e 34 78
e 34 80
e 34 81
e 34 84
e 34 85
e 34 87
e 34 92
e 34 97
e 35 53
e 35 54
e 35 59
e 35 61
e 35 66
e 35 67
e 35 71
e 35 74
e 35 75
e 35 77
e 35 78
e 35 79
e 35 84
e 35 85
e 35 86
e 35 88
e 35 91
e 35 93
e 35 94
e 35 95
e 35 97
e 35 100
e 36 54
e 36 58
e 36 60
e 36 61
e 36 62
e 36 64
e 36 68
e 36 70
e 36 74
e 36 75
e 36 76
e 36 78
e 36 81
e 36 85
e 36 87
e 36 91
e 36 94
e 36 95
e 36 96
e 36 98
e 36 99
e 37 54
e 37 55
e 37 57
e 37 59
e 37 60
e 37 61
e 37 62
e 37 67
e 37 68
e 37 77
e 37 80
e 37 83
e 37 84
e 37 86
e 37 87
e 37 91
e 37 94
e 37 97
e 37 100
e 38 53
e 38 68
e 38 72
e 38 76
e 38 78
e 38 79
e 38 80
e 38 81
e 38 88
e 38 90
e 38 93
e 38 96
e 38 98
e 39 55
e 39 58
e 39 61
e 39 66
e 39 69
e 39 75
e 39 80
e 39 83
e 39 84
e 39 86
e 39 87
e 39 88
e 39 89
e 39 90
e 39 91
e 39 98
e 39 99
e 40 53
e 40 58
e 40 63
e 40 65
e 40 66
e 40 69
e 40 71
e 40 72
e 40 75
e 40 77
e 40 79
e 40 80
e 40 82
e 40 84
e 40 86
e 40 87
e 40 88
e 40 89
e 40 91
e 40 96
e 40 98
e 40 99
e 40 100
e 41 54
e 41 55
e 41 56
e 41 59
e 41 61
e 41 62
e 41 66
e 41 67
e 41 70
e 41 71
e 41 72
e 41 73
e 41 74
e 41 75
e 41 76
e 41 78
e 41 80
e 41 81
e 41 82
e 41 83
e 41 84
e 41 85
e 41 86
e 41 88
e 41 91
e 41 94
e 41 98
e 41 100
e 42 53
e 42 61
e 42 70
e 42 71
e 42 72
e 42 74
e 42 80
e 42 81
e 42 82
e 42 84
e 42 85
e 42 88
e 42 90
e 42 94
e 42 95
e 42 97
e 42 98
e 43 54
e 43 56
e 43 57
e 43 60
e 43 62
e 43 67
e 43 69
e 43 71
e 43 72
e 43 73
e 43 74
e 43 77
e 43 78
e 43 79
e 43 81
e 43 84
e 43 85
e 43 87
e 43 89
e 43 92
e 43 94
e 43 95
e 43 97
e 43 100
e 44 53
e 44 54
e 44 56
e 44 58
e 44 59
e 44 61
e 44 63
e 44 66
e 44 70
e 44 74
e 44 75
e 44 76
e 44 78
e 44 81
e 44 82
e 44 85
e 44 88
e 44 89
e 44 90
e 44 93
e 44 94
e 44 99
e 44 100
e 45 56
e 45 57
e 45 59
e 45 62
e 45 64
e 45 68
e 45 72
e 45 73
e 45 78
e 45 80
e 45 81
e 45 82
e 45 83
e 45 87
e 45 88
e 45 89
e 45 90
e 45 91
e 45 92
e 45 93
e 45 95
e 45 97
e 45 100
e 46 55
e 46 56
e 46 57
e 46 59
e 46 61
e 46 64
e 46 68
e 46 69
e 46 70
e 46 73
e 46 75
e 46 76
e 46 77
e 46 79
e 46 82
e 46 83
e 46 84
e 46 91
e 46 97
e 46 98
e 46 100
e 47 54
e 47 56
e 47 60
e 47 63
e 47 64
e 47 67
e 47 71
e 47 73
e 47 75
e 47 77
e 47 78
e 47 79
e 47 80
e 47 81
e 47 82
e 47 83
e 47 84
e 47 86
e 47 87
e 47 90
e 47 91
e 47 92
e 47 93
e 47 94
e 47 97
e 47 98
e 47 99
e 47 100
e 48 53
e 48 57
e 48 61
e 48 63
e 48 65
e 48 68
e 48 71
e 48 72
e 48 74
e 48 75
e 48 76
e 48 78
e 48 79
e 48 80
e 48 82
e 48 84
e 48 85
e 48 90
e 48 91
e 48 93
e 48 96
e 48 99
e 48 100
e 49 54
e 49 55
e 49 57
e 49 58
e 49 62
e 49 63
e 49 65
e 49 67
e 49 68
e 49 69
e 49 72
e 49 77
e 49 78
e 49 79
e 49 81
e 49 82
e 49 85
e 49 86
e 49 89
e 49 91
e 49 92
e 49 95
e 49 96
e 49 97
e 49 99
e 49 100
e 50 55
e 50 59
e 50 60
e 50 62
e 50 64
e 50 67
e 50 72
e 50 75
e 50 76
e 50 77
e 50 81
e 50 83
e 50 85
e 50 86
e 50 87
e 50 95
e 50 97
e 50 99
e 50 100
e 51 54
e 51 55
e 51 58
e 51 68
e 51 69
e 51 70
e 51 73
e 51 76
e 51 80
e 51 81
e 51 82
e 51 83
e 51 84
e 51 87
e 51 88
e 51 89
e 51 91
e 51 94
e 51 98
e 51 99
e 51 100
e 52 53
e 52 55
e 52 57
e 52 58
e 52 59
e 52 61
e 52 64
e 52 65
e 52 69
e 52 70
e 52 71
e 52 72
e 52 74
e 52 76
e 52 87
e 52 90
e 52 91
e 52 94
e 52 98
e 52 99
e 52 100
e 53 81
e 53 83
e 53 89
e 53 90
e 53 92
e 53 93
e 53 94
e 53 95
e 53 99
e 54 76
e 54 78
e 54 81
e 54 83
e 54 84
e 54 87
e 54 88
e 54 89
e 54 92
e 54 94
e 54 95
e 54 96
e 54 97
e 54 99
e 55 74
e 55 76
e 55 78
e 55 79
e 55 82
e 55 83
e 55 85
e 55 89
e 55 92
e 55 96
e 55 100
e 56 72
e 56 74
e 56 75
e 56 77
e 56 81
e 56 83
e 56 84
e 56 87
e 56 88
e 56 92
e 56 98
e 56 99
e 56 100
e 57 72
e 57 73
e 57 81
e 57 87
e 57 89
e 57 90
e 57 91
e 57 92
e 57 93
e 57 95
e 57 97
e 57 98
e 58 72
e 58 74
e 58 79
e 58 85
e 58 86
e 58 87
e 58 88
e 58 90
e 58 91
e 58 94
e 58 97
e 58 98
e 59 73
e 59 74
e 59 75
e 59 77
e 59 78
e 59 79
e 59 83
e 59 89
e 59 91
e 59 93
e 59 95
e 59 96
e 59 99
e 59 100
e 60 72
e 60 75
e 60 76
e 60 77
e 60 81
e 60 82
e 60 84
e 60 87
e 60 95
e 60 97
e 60 99
e 61 73
e 61 75
e 61 77
e 61 78
e 61 80
e 61 81
e 61 84
e 61 85
e 61 90
e 61 94
e 61 96
e 61 98
e 62 72
e 62 73
e 62 74
e 62 77
e 62 79
e 62 82
e 62 85
e 62 86
e 62 87
e 62 88
e 62 93
e 62 95
e 62 97
e 62 99
e 63 72
e 63 75
e 63 76
e 63 77
e 63 78
e 63 80
e 63 81
e 63 82
e 63 83
e 63 86
e 63 88
e 63 90
e 63 92
e 63 94
e 63 96
e 63 99
e 63 100
e 64 72
e 64 75
e 64 76
e 64 78
e 64 79
e 64 83
e 64 84
e 64 85
e 64 87
e 64 92
e 64 93
e 64 95
e 64 96
e 64 97
e 64 98
e 64 99
e 65 73
e 65 75
e 65 79
e 65 82
e 65 83
e 65 86
e 65 87
e 65 88
e 65 89
e 65 92
e 65 93
e 65 95
e 65 96
e 65 98
e 65 99
e 66 72
e 66 73
e 66 74
e 66 75
e 66 78
e 66 84
e 66 85
e 66 86
e 66 88
e 66 91
e 66 94
e 66 97
e 66 98
e 66 99
e 67 73
e 67 75
e 67 77
e 67 84
e 67 88
e 67 92
e 67 93
e 67 96
e 67 99
e 68 72
e 68 79
e 68 83
e 68 84
e 68 86
e 68 89
e 68 98
e 68 99
e 68 100
e 69 72
e 69 73
e 69 80
e 69 83
e 69 84
e 69 85
e 69 88
e 69 89
e 69 90
e 69 91
e 69 92
e 69 97
e 69 98
e 69 99
e 69 100
e 70 73
e 70 74
e 70 75
e 70 76
e 70 79
e 70 80
e 70 88
e 70 91
e 70 97
e 70 98
e 71 73
e 71 75
e 71 78
e 71 79
e 71 80
e 71 83
e 71 87
e 71 88
e 71 89
e 71 90
e 71 91
e 71 92
e 71 95
e 71 96
e 72 94
e 72 95
e 72 96
e 72 97
e 72 98
e 72 99
e 72 100
e 73 94
e 73 95
e 73 96
e 73 97
e 73 98
e 73 99
e 73 100
e 74 91
e 74 94
e 74 95
e 74 96
e 74 97
e 74 98
e 74 99
e 74 100
e 75 94
e 75 95
e 75 96
e 75 97
e 75 98
e 75 99
e 75 100
e 76 94
e 76 95
e 76 96
e 76 97
e 76 98
e 76 99
e 76 100
e 77 78
e 77 94
e 77 95
e 77 96
e 77 97
e 77 98
e 77 99
e 77 100
e 78 94
e 78 95
e 78 96
e 78 97
e 78 98
e 78 99
e 78 100
e 79 89
e 79 94
e 79 95
e 79 96
e 79 97
e 79 98
e 79 99
e 79 100
e 80 89
e 80 94
e 80 95
e 80 96
e 80 97
e 80 98
e 80 99
e 80 100
e 81 89
e 81 94
e 81 95
e 81 96
e 81 97
e 81 98
e 81 99
e 81 100
e 82 94
e 82 95
e 82 96
e 82 97
e 82 98
e 82 99
e 83 94
e 83 95
e 83 96
e 83 97
e 83 98
e 83 99
e 83 100
e 84 94
e 84 95
e 84 96
e 84 97
e 84 98
e 84 99
e 84 100
e 85 95
e 85 96
e 85 97
e 85 98
e 85 99
e 85 100
e 86 94
e 86 100
e 87 94
e 87 95
e 87 96
e 87 97
e 87 98
e 87 99
e 87 100
e 88 90
e 88 94
e 88 96
e 88 97
e 88 98
e 88 99
e 88 100
e 90 96
e 91 96
